minimize
OBJ:+2000 x_1_2 +4000 x_1_3 +4472.135955 x_1_4 +6324.55532034 x_1_5 +6000 x_1_6 +6324.55532034 x_1_7 +8246.21125124 x_1_8
 +8000 x_1_9 +2000 x_2_3 +2828.42712474 x_2_4 +4472.135955 x_2_5 +4000 x_2_6 +4472.135955 x_2_7 +6324.55532034 x_2_8
 +6000 x_2_9 +2000 x_3_2 +2000 x_3_4 +2828.42712474 x_3_5 +2000 x_3_6 +2828.42712474 x_3_7 +4472.135955 x_3_8
 +4000 x_3_9 +2828.42712474 x_4_2 +2000 x_4_3 +4472.135955 x_4_5 +2828.42712474 x_4_6 +2000 x_4_7 +5656.85424949 x_4_8
 +4472.135955 x_4_9 +4472.135955 x_5_2 +2828.42712474 x_5_3 +4472.135955 x_5_4 +2000 x_5_6 +4000 x_5_7
 +2000 x_5_8 +2828.42712474 x_5_9 +4000 x_6_2 +2000 x_6_3 +2828.42712474 x_6_4 +2000 x_6_5 +2000 x_6_7
 +2828.42712474 x_6_8 +2000 x_6_9 +4472.135955 x_7_2 +2828.42712474 x_7_3 +2000 x_7_4 +4000 x_7_5 +2000 x_7_6
 +4472.135955 x_7_8 +2828.42712474 x_7_9 +6324.55532034 x_8_2 +4472.135955 x_8_3 +5656.85424949 x_8_4
 +2000 x_8_5 +2828.42712474 x_8_6 +4472.135955 x_8_7 +2000 x_8_9 +6000 x_9_2 +4000 x_9_3 +4472.135955 x_9_4
 +2828.42712474 x_9_5 +2000 x_9_6 +2828.42712474 x_9_7 +2000 x_9_8 

subject to
+x_1_2 +x_1_3 +x_1_4 +x_1_5 +x_1_6 +x_1_7 +x_1_8 +x_1_9 = 1
+x_2_1 +x_2_3 +x_2_4 +x_2_5 +x_2_6 +x_2_7 +x_2_8 +x_2_9 = 1
+x_3_1 +x_3_2 +x_3_4 +x_3_5 +x_3_6 +x_3_7 +x_3_8 +x_3_9 = 1
+x_4_1 +x_4_2 +x_4_3 +x_4_5 +x_4_6 +x_4_7 +x_4_8 +x_4_9 = 1
+x_5_1 +x_5_2 +x_5_3 +x_5_4 +x_5_6 +x_5_7 +x_5_8 +x_5_9 = 1
+x_6_1 +x_6_2 +x_6_3 +x_6_4 +x_6_5 +x_6_7 +x_6_8 +x_6_9 = 1
+x_7_1 +x_7_2 +x_7_3 +x_7_4 +x_7_5 +x_7_6 +x_7_8 +x_7_9 = 1
+x_8_1 +x_8_2 +x_8_3 +x_8_4 +x_8_5 +x_8_6 +x_8_7 +x_8_9 = 1
+x_9_1 +x_9_2 +x_9_3 +x_9_4 +x_9_5 +x_9_6 +x_9_7 +x_9_8 = 1
+x_2_1 +x_3_1 +x_4_1 +x_5_1 +x_6_1 +x_7_1 +x_8_1 +x_9_1 = 1
+x_1_2 +x_3_2 +x_4_2 +x_5_2 +x_6_2 +x_7_2 +x_8_2 +x_9_2 = 1
+x_1_3 +x_2_3 +x_4_3 +x_5_3 +x_6_3 +x_7_3 +x_8_3 +x_9_3 = 1
+x_1_4 +x_2_4 +x_3_4 +x_5_4 +x_6_4 +x_7_4 +x_8_4 +x_9_4 = 1
+x_1_5 +x_2_5 +x_3_5 +x_4_5 +x_6_5 +x_7_5 +x_8_5 +x_9_5 = 1
+x_1_6 +x_2_6 +x_3_6 +x_4_6 +x_5_6 +x_7_6 +x_8_6 +x_9_6 = 1
+x_1_7 +x_2_7 +x_3_7 +x_4_7 +x_5_7 +x_6_7 +x_8_7 +x_9_7 = 1
+x_1_8 +x_2_8 +x_3_8 +x_4_8 +x_5_8 +x_6_8 +x_7_8 +x_9_8 = 1
+x_1_9 +x_2_9 +x_3_9 +x_4_9 +x_5_9 +x_6_9 +x_7_9 +x_8_9 = 1
+9 x_2_3 +u_2 -u_3 <= 8
+9 x_2_4 +u_2 -u_4 <= 8
+9 x_2_5 +u_2 -u_5 <= 8
+9 x_2_6 +u_2 -u_6 <= 8
+9 x_2_7 +u_2 -u_7 <= 8
+9 x_2_8 +u_2 -u_8 <= 8
+9 x_2_9 +u_2 -u_9 <= 8
+9 x_3_2 +u_3 -u_2 <= 8
+9 x_3_4 +u_3 -u_4 <= 8
+9 x_3_5 +u_3 -u_5 <= 8
+9 x_3_6 +u_3 -u_6 <= 8
+9 x_3_7 +u_3 -u_7 <= 8
+9 x_3_8 +u_3 -u_8 <= 8
+9 x_3_9 +u_3 -u_9 <= 8
+9 x_4_2 +u_4 -u_2 <= 8
+9 x_4_3 +u_4 -u_3 <= 8
+9 x_4_5 +u_4 -u_5 <= 8
+9 x_4_6 +u_4 -u_6 <= 8
+9 x_4_7 +u_4 -u_7 <= 8
+9 x_4_8 +u_4 -u_8 <= 8
+9 x_4_9 +u_4 -u_9 <= 8
+9 x_5_2 +u_5 -u_2 <= 8
+9 x_5_3 +u_5 -u_3 <= 8
+9 x_5_4 +u_5 -u_4 <= 8
+9 x_5_6 +u_5 -u_6 <= 8
+9 x_5_7 +u_5 -u_7 <= 8
+9 x_5_8 +u_5 -u_8 <= 8
+9 x_5_9 +u_5 -u_9 <= 8
+9 x_6_2 +u_6 -u_2 <= 8
+9 x_6_3 +u_6 -u_3 <= 8
+9 x_6_4 +u_6 -u_4 <= 8
+9 x_6_5 +u_6 -u_5 <= 8
+9 x_6_7 +u_6 -u_7 <= 8
+9 x_6_8 +u_6 -u_8 <= 8
+9 x_6_9 +u_6 -u_9 <= 8
+9 x_7_2 +u_7 -u_2 <= 8
+9 x_7_3 +u_7 -u_3 <= 8
+9 x_7_4 +u_7 -u_4 <= 8
+9 x_7_5 +u_7 -u_5 <= 8
+9 x_7_6 +u_7 -u_6 <= 8
+9 x_7_8 +u_7 -u_8 <= 8
+9 x_7_9 +u_7 -u_9 <= 8
+9 x_8_2 +u_8 -u_2 <= 8
+9 x_8_3 +u_8 -u_3 <= 8
+9 x_8_4 +u_8 -u_4 <= 8
+9 x_8_5 +u_8 -u_5 <= 8
+9 x_8_6 +u_8 -u_6 <= 8
+9 x_8_7 +u_8 -u_7 <= 8
+9 x_8_9 +u_8 -u_9 <= 8
+9 x_9_2 +u_9 -u_2 <= 8
+9 x_9_3 +u_9 -u_3 <= 8
+9 x_9_4 +u_9 -u_4 <= 8
+9 x_9_5 +u_9 -u_5 <= 8
+9 x_9_6 +u_9 -u_6 <= 8
+9 x_9_7 +u_9 -u_7 <= 8
+9 x_9_8 +u_9 -u_8 <= 8

bounds
x_1_1 <= 1
x_1_2 <= 1
x_1_3 <= 1
x_1_4 <= 1
x_1_5 <= 1
x_1_6 <= 1
x_1_7 <= 1
x_1_8 <= 1
x_1_9 <= 1
x_2_1 <= 1
x_2_2 <= 1
x_2_3 <= 1
x_2_4 <= 1
x_2_5 <= 1
x_2_6 <= 1
x_2_7 <= 1
x_2_8 <= 1
x_2_9 <= 1
x_3_1 <= 1
x_3_2 <= 1
x_3_3 <= 1
x_3_4 <= 1
x_3_5 <= 1
x_3_6 <= 1
x_3_7 <= 1
x_3_8 <= 1
x_3_9 <= 1
x_4_1 <= 1
x_4_2 <= 1
x_4_3 <= 1
x_4_4 <= 1
x_4_5 <= 1
x_4_6 <= 1
x_4_7 <= 1
x_4_8 <= 1
x_4_9 <= 1
x_5_1 <= 1
x_5_2 <= 1
x_5_3 <= 1
x_5_4 <= 1
x_5_5 <= 1
x_5_6 <= 1
x_5_7 <= 1
x_5_8 <= 1
x_5_9 <= 1
x_6_1 <= 1
x_6_2 <= 1
x_6_3 <= 1
x_6_4 <= 1
x_6_5 <= 1
x_6_6 <= 1
x_6_7 <= 1
x_6_8 <= 1
x_6_9 <= 1
x_7_1 <= 1
x_7_2 <= 1
x_7_3 <= 1
x_7_4 <= 1
x_7_5 <= 1
x_7_6 <= 1
x_7_7 <= 1
x_7_8 <= 1
x_7_9 <= 1
x_8_1 <= 1
x_8_2 <= 1
x_8_3 <= 1
x_8_4 <= 1
x_8_5 <= 1
x_8_6 <= 1
x_8_7 <= 1
x_8_8 <= 1
x_8_9 <= 1
x_9_1 <= 1
x_9_2 <= 1
x_9_3 <= 1
x_9_4 <= 1
x_9_5 <= 1
x_9_6 <= 1
x_9_7 <= 1
x_9_8 <= 1
x_9_9 <= 1

general
x_1_1 x_1_2 x_1_3 x_1_4 x_1_5 x_1_6 x_1_7 x_1_8 x_1_9 x_2_1 x_2_2 x_2_3 x_2_4 x_2_5 x_2_6 x_2_7 x_2_8 x_2_9 x_3_1 x_3_2 x_3_3 x_3_4 x_3_5 x_3_6 x_3_7 x_3_8 x_3_9 x_4_1 x_4_2 x_4_3 x_4_4 x_4_5 x_4_6 x_4_7 x_4_8 x_4_9 x_5_1 x_5_2 x_5_3 x_5_4 x_5_5 x_5_6 x_5_7 x_5_8 x_5_9 x_6_1 x_6_2 x_6_3 x_6_4 x_6_5 x_6_6 x_6_7 x_6_8 x_6_9 x_7_1 x_7_2 x_7_3 x_7_4 x_7_5 x_7_6 x_7_7 x_7_8 x_7_9 x_8_1 x_8_2 x_8_3 x_8_4 x_8_5 x_8_6 x_8_7 x_8_8 x_8_9 x_9_1 x_9_2 x_9_3 x_9_4 x_9_5 x_9_6 x_9_7 x_9_8 x_9_9 

end